p tw 155 178
1 2
2 68
3 14
4 5
5 6
6 27
7 8
8 9
9 27
10 11
11 12
12 13
12 27
13 15
14 25
15 27
16 17
17 18
18 19
19 20
20 21
21 22
22 23
23 24
24 26
25 36
26 27
27 28
28 29
29 30
29 32
30 31
31 32
31 43
32 33
33 34
34 35
35 37
36 47
37 38
38 39
39 40
40 41
41 42
42 43
43 44
44 45
45 46
46 48
47 58
48 49
49 50
49 60
50 51
51 52
52 53
53 54
54 55
55 56
56 57
57 59
58 64
59 60
60 61
61 62
62 63
64 65
65 90
66 67
67 69
68 79
69 70
70 71
71 72
71 73
72 73
73 74
74 75
75 76
76 77
76 10
77 78
78 80
78 10
79 90
80 81
81 82
82 83
82 102
83 84
84 85
84 137
85 86
86 87
86 7
87 88
88 89
88 4
89 91
90 101
91 92
91 148
92 93
93 94
93 137
94 95
95 96
95 7
96 97
97 98
97 4
98 99
99 100
99 148
100 16
101 112
102 103
103 104
104 105
105 106
106 107
107 108
108 109
108 126
109 110
110 111
111 113
112 123
113 114
114 115
115 116
115 126
116 117
117 118
118 119
119 120
120 121
121 122
122 124
123 134
124 125
125 73
126 127
127 128
128 129
129 130
130 131
131 132
132 133
133 135
134 145
135 136
136 137
137 138
138 139
138 140
139 140
140 141
141 142
142 143
142 27
143 144
144 146
144 27
145 3
145 66
146 147
147 27
148 149
149 150
149 151
150 151
151 152
152 153
153 154
153 27
154 155
155 27
